129
10000
372
1265
870
32
1196
1037
881
394
386
1486
2412
1398
1568
1262
872
159
1893
1358
2286
286
1084
1375
1056
1849
1550
2232
2056
391
26
2
2
410
2021
141
2121
316
2473
132
1251
1542
1601
145
2114
2306
1195
1247
2058
581
1985
482
1077
1044
1964
2312
1575
839
1004
272
330
709
1151
907
1265
1562
2421
2031
2173
241
1415
213
2323
2342
2301
2073
1598
304
1868
1812
247
1673
2433
2245
1141
644
1365
620
120
1512
2137
473
1444
1560
639
2409
963
1868
272
1188
626
1139
149
1539
618
346
917
3
2007
342
1985
221
2040
100
996
417
749
60
1874
1056
2245
144
247
1906
2445
380
1479
395
1888
372
79
